\ SCIP STATISTICS
\   Problem name     : CapacitatedFacilityLocation-20-10
\   Variables        : 210 (210 binary, 0 integer, 0 implicit integer, 0 continuous)
\   Constraints      : 231
Minimize
 Obj: +1175.43371598016 x0 +864.799075500222 x1 +826.896818897228 x2 +636.57676649773 x3 +1277.46555420983 x4
      +1249.77992993726 x5 +1106.47095739997 x6 +846.660026534076 x7 +510.493866498901 x8 +1249.9316876853 x9
      +125.752611067692 x10 +82.7996472171914 x11 +23.3472508438814 x12 +99.0770574640949 x13 +48.9633752587206 x14
      +98.5731213092729 x15 +94.7312860777804 x16 +51.5452946468197 x17 +113.098795612063 x18 +65.9736964013529 x19
      +124.566599368962 x20 +37.5408702454583 x21 +56.9965066162158 x22 +169.455703917143 x23 +99.0776082820609 x24
      +135.984630397889 x25 +156.78930733732 x26 +93.1033778672604 x27 +114.947834696835 x28 +118.091164044276 x29
      +173.770524373032 x30 +87.6348482808159 x31 +67.9755059652749 x32 +72.44199677602 x33 +53.2720874190617 x34
      +173.720196163191 x35 +58.1522327247209 x36 +133.200579337414 x37 +167.13133398955 x38 +148.506804722304 x39
      +21.2464533083764 x40 +73.7864699417607 x41 +111.89252489834 x42 +187.992952283643 x43 +141.582875432018 x44
      +80.4821139334565 x45 +180.55009300412 x46 +89.4901331792144 x47 +31.1400918529316 x48 +99.2236111567544 x49
      +34.8140301591074 x50 +102.901907078974 x51 +115.233714690567 x52 +177.401460040761 x53 +140.123027975204 x54
      +43.7956969722888 x55 +173.982199090197 x56 +72.8897560243409 x57 +33.5472306720475 x58 +72.2141708964805 x59
      +51.5176794960692 x60 +106.334663939912 x61 +105.162095970656 x62 +169.797513620015 x63 +130.900159403362 x64
      +14.9605304376685 x65 +167.444501579517 x66 +51.5775655460859 x67 +41.6442056870595 x68 +47.4152130398624 x69
      +85.5638840966141 x70 +47.5700105390287 x71 +11.5397515973725 x72 +39.3721654329101 x73 +8.49787436317454 x74
      +75.1878314830061 x75 +35.0010242223275 x76 +49.0504021052202 x77 +79.4391098080877 x78 +57.1467816869941 x79
      +75.172129537369 x80 +71.328775744523 x81 +50.4364859035463 x82 +46.4882965847451 x83 +47.9704325437539 x84
      +54.0964694478755 x85 +50.2253111162299 x86 +46.1711349783995 x87 +70.2471267153051 x88 +42.9540048081186 x89
      +75.6937078650085 x90 +44.7426392558443 x91 +112.080295579543 x92 +205.122984181674 x93 +146.597304332785 x94
      +128.970803267543 x95 +193.112034645315 x96 +116.70027480191 x97 +78.6102285510528 x98 +135.396459593815 x99
      +25.5387014407191 x100 +46.6153843921559 x101 +72.1917771736759 x102 +137.519266949323 x103 +97.8176583987218 x104
      +56.1223879168052 x105 +131.52039460918 x106 +55.1535915608682 x107 +23.1523372370434 x108 +65.3908476065343 x109
      +59.4640666482834 x110 +64.0642759841826 x111 +118.644078753241 x112 +230.425854972298 x113 +161.904380824974 x114
      +112.624660268855 x115 +218.913786004814 x116 +103.453061954338 x117 +57.8493672839653 x118 +123.28053947637 x119
      +39.5504355854629 x120 +98.4899648180984 x121 +103.542306045164 x122 +174.689471701698 x123 +131.925448226909 x124
      +22.9503693405499 x125 +171.134428789548 x126 +52.3190258505187 x127 +28.4939532844371 x128 +52.7546437239205 x129
      +30.9070502520279 x130 +55.63149175302 x131 +53.8656049268881 x132 +97.0362070520029 x133 +70.9888990590548 x134
      +10.3432337273133 x135 +95.0614825598974 x136 +21.0074118117518 x137 +22.9588877743 x138 +22.1623619823611 x139
      +44.7179816569871 x140 +21.0600658536177 x141 +4.02749535543482 x142 +35.9988190528137 x143 +16.1019572453256 x144
      +41.2295172766883 x145 +32.8780716477211 x146 +25.5781132443746 x147 +41.0777451425278 x148 +31.9428264583171 x149
      +34.6410047297916 x150 +30.1022202134423 x151 +15.9694589777395 x152 +26.2597055725614 x153 +18.4695137308541 x154
      +22.3635572420649 x155 +26.7590485296162 x156 +12.5946066424385 x157 +31.0889909795006 x158 +12.6312733499095 x159
      +30.6733214943656 x160 +28.9306818461542 x161 +17.5084004382611 x162 +24.6051688277009 x163 +19.270061814974 x164
      +18.7821911306758 x165 +25.4143919453154 x166 +12.299557679686 x167 +27.6240732166276 x168 +10.9192174685964 x169
      +48.5887830679413 x170 +67.6635852130611 x171 +55.9083390842258 x172 +88.691861487335 x173 +68.5206171854647 x174
      +13.6062381325631 x175 +88.6191167285041 x176 +22.1542337214695 x177 +41.4985852455041 x178 +14.0080055153812 x179
      +84.7611027144979 x180 +74.7942984387444 x181 +43.0526665867058 x182 +102.70966919317 x183 +65.0154543076094 x184
      +53.4305478360667 x185 +100.58752328413 x186 +15.5730599456879 x187 +73.2819000123535 x188 +26.9773554750711 x189
      +239.641105397443 x190 +151.624509530717 x191 +71.1368415456017 x192 +45.226514885436 x193 +26.763121000448 x194
      +207.026418448318 x195 +39.4758252748673 x196 +146.455793938133 x197 +224.868463961048 x198 +160.552847745956 x199
      +118.427131772986 x200 +145.618743593219 x201 +119.166490886151 x202 +148.459219164253 x203 +130.166103501188 x204
      +69.1292420433376 x205 +151.862191977811 x206 +78.2628436643928 x207 +109.055652358675 x208 +65.0164751799857 x209
Subject to
 c0: +1 x10 +1 x11 +1 x12 +1 x13 +1 x14 +1 x15 +1 x16 +1 x17 +1 x18 +1 x19 >= +1
 c1: +1 x20 +1 x21 +1 x22 +1 x23 +1 x24 +1 x25 +1 x26 +1 x27 +1 x28 +1 x29 >= +1
 c2: +1 x30 +1 x31 +1 x32 +1 x33 +1 x34 +1 x35 +1 x36 +1 x37 +1 x38 +1 x39 >= +1
 c3: +1 x40 +1 x41 +1 x42 +1 x43 +1 x44 +1 x45 +1 x46 +1 x47 +1 x48 +1 x49 >= +1
 c4: +1 x50 +1 x51 +1 x52 +1 x53 +1 x54 +1 x55 +1 x56 +1 x57 +1 x58 +1 x59 >= +1
 c5: +1 x60 +1 x61 +1 x62 +1 x63 +1 x64 +1 x65 +1 x66 +1 x67 +1 x68 +1 x69 >= +1
 c6: +1 x70 +1 x71 +1 x72 +1 x73 +1 x74 +1 x75 +1 x76 +1 x77 +1 x78 +1 x79 >= +1
 c7: +1 x80 +1 x81 +1 x82 +1 x83 +1 x84 +1 x85 +1 x86 +1 x87 +1 x88 +1 x89 >= +1
 c8: +1 x90 +1 x91 +1 x92 +1 x93 +1 x94 +1 x95 +1 x96 +1 x97 +1 x98 +1 x99 >= +1
 c9: +1 x100 +1 x101 +1 x102 +1 x103 +1 x104 +1 x105 +1 x106 +1 x107 +1 x108 +1 x109 >= +1
 c10: +1 x110 +1 x111 +1 x112 +1 x113 +1 x114 +1 x115 +1 x116 +1 x117 +1 x118 +1 x119 >= +1
 c11: +1 x120 +1 x121 +1 x122 +1 x123 +1 x124 +1 x125 +1 x126 +1 x127 +1 x128 +1 x129 >= +1
 c12: +1 x130 +1 x131 +1 x132 +1 x133 +1 x134 +1 x135 +1 x136 +1 x137 +1 x138 +1 x139 >= +1
 c13: +1 x140 +1 x141 +1 x142 +1 x143 +1 x144 +1 x145 +1 x146 +1 x147 +1 x148 +1 x149 >= +1
 c14: +1 x150 +1 x151 +1 x152 +1 x153 +1 x154 +1 x155 +1 x156 +1 x157 +1 x158 +1 x159 >= +1
 c15: +1 x160 +1 x161 +1 x162 +1 x163 +1 x164 +1 x165 +1 x166 +1 x167 +1 x168 +1 x169 >= +1
 c16: +1 x170 +1 x171 +1 x172 +1 x173 +1 x174 +1 x175 +1 x176 +1 x177 +1 x178 +1 x179 >= +1
 c17: +1 x180 +1 x181 +1 x182 +1 x183 +1 x184 +1 x185 +1 x186 +1 x187 +1 x188 +1 x189 >= +1
 c18: +1 x190 +1 x191 +1 x192 +1 x193 +1 x194 +1 x195 +1 x196 +1 x197 +1 x198 +1 x199 >= +1
 c19: +1 x200 +1 x201 +1 x202 +1 x203 +1 x204 +1 x205 +1 x206 +1 x207 +1 x208 +1 x209 >= +1
 c20: +25 x10 +32 x20 +23 x30 +21 x40 +18 x50 +20 x60 +14 x70 +8 x80 +27 x90 +18 x100 +31 x110 +21 x120
  +13 x130 +9 x140 +6 x150 +5 x160 +12 x170 +20 x180 +32 x190 +17 x200 -232 x0 <= +0
 c21: +25 x11 +32 x21 +23 x31 +21 x41 +18 x51 +20 x61 +14 x71 +8 x81 +27 x91 +18 x101 +31 x111 +21 x121
  +13 x131 +9 x141 +6 x151 +5 x161 +12 x171 +20 x181 +32 x191 +17 x201 -111 x1 <= +0
 c22: +25 x12 +32 x22 +23 x32 +21 x42 +18 x52 +20 x62 +14 x72 +8 x82 +27 x92 +18 x102 +31 x112 +21 x122
  +13 x132 +9 x142 +6 x152 +5 x162 +12 x172 +20 x182 +32 x192 +17 x202 -132 x2 <= +0
 c23: +25 x13 +32 x23 +23 x33 +21 x43 +18 x53 +20 x63 +14 x73 +8 x83 +27 x93 +18 x103 +31 x113 +21 x123
  +13 x133 +9 x143 +6 x153 +5 x163 +12 x173 +20 x183 +32 x193 +17 x203 -58 x3 <= +0
 c24: +25 x14 +32 x24 +23 x34 +21 x44 +18 x54 +20 x64 +14 x74 +8 x84 +27 x94 +18 x104 +31 x114 +21 x124
  +13 x134 +9 x144 +6 x154 +5 x164 +12 x174 +20 x184 +32 x194 +17 x204 -288 x4 <= +0
 c25: +25 x15 +32 x25 +23 x35 +21 x45 +18 x55 +20 x65 +14 x75 +8 x85 +27 x95 +18 x105 +31 x115 +21 x125
  +13 x135 +9 x145 +6 x155 +5 x165 +12 x175 +20 x185 +32 x195 +17 x205 -279 x5 <= +0
 c26: +25 x16 +32 x26 +23 x36 +21 x46 +18 x56 +20 x66 +14 x76 +8 x86 +27 x96 +18 x106 +31 x116 +21 x126
  +13 x136 +9 x146 +6 x156 +5 x166 +12 x176 +20 x186 +32 x196 +17 x206 -232 x6 <= +0
 c27: +25 x17 +32 x27 +23 x37 +21 x47 +18 x57 +20 x67 +14 x77 +8 x87 +27 x97 +18 x107 +31 x117 +21 x127
  +13 x137 +9 x147 +6 x157 +5 x167 +12 x177 +20 x187 +32 x197 +17 x207 -149 x7 <= +0
 c28: +25 x18 +32 x28 +23 x38 +21 x48 +18 x58 +20 x68 +14 x78 +8 x88 +27 x98 +18 x108 +31 x118 +21 x128
  +13 x138 +9 x148 +6 x158 +5 x168 +12 x178 +20 x188 +32 x198 +17 x208 -51 x8 <= +0
 c29: +25 x19 +32 x29 +23 x39 +21 x49 +18 x59 +20 x69 +14 x79 +8 x89 +27 x99 +18 x109 +31 x119 +21 x129
  +13 x139 +9 x149 +6 x159 +5 x169 +12 x179 +20 x189 +32 x199 +17 x209 -326 x9 <= +0
 c30: +232 x0 +111 x1 +132 x2 +58 x3 +288 x4 +279 x5 +232 x6 +149 x7 +51 x8 +326 x9 >= +372
 c31: +1 x10 -1 x0 <= +0
 c32: +1 x11 -1 x1 <= +0
 c33: +1 x12 -1 x2 <= +0
 c34: +1 x13 -1 x3 <= +0
 c35: +1 x14 -1 x4 <= +0
 c36: +1 x15 -1 x5 <= +0
 c37: +1 x16 -1 x6 <= +0
 c38: +1 x17 -1 x7 <= +0
 c39: +1 x18 -1 x8 <= +0
 c40: +1 x19 -1 x9 <= +0
 c41: +1 x20 -1 x0 <= +0
 c42: +1 x21 -1 x1 <= +0
 c43: +1 x22 -1 x2 <= +0
 c44: +1 x23 -1 x3 <= +0
 c45: +1 x24 -1 x4 <= +0
 c46: +1 x25 -1 x5 <= +0
 c47: +1 x26 -1 x6 <= +0
 c48: +1 x27 -1 x7 <= +0
 c49: +1 x28 -1 x8 <= +0
 c50: +1 x29 -1 x9 <= +0
 c51: +1 x30 -1 x0 <= +0
 c52: +1 x31 -1 x1 <= +0
 c53: +1 x32 -1 x2 <= +0
 c54: +1 x33 -1 x3 <= +0
 c55: +1 x34 -1 x4 <= +0
 c56: +1 x35 -1 x5 <= +0
 c57: +1 x36 -1 x6 <= +0
 c58: +1 x37 -1 x7 <= +0
 c59: +1 x38 -1 x8 <= +0
 c60: +1 x39 -1 x9 <= +0
 c61: +1 x40 -1 x0 <= +0
 c62: +1 x41 -1 x1 <= +0
 c63: +1 x42 -1 x2 <= +0
 c64: +1 x43 -1 x3 <= +0
 c65: +1 x44 -1 x4 <= +0
 c66: +1 x45 -1 x5 <= +0
 c67: +1 x46 -1 x6 <= +0
 c68: +1 x47 -1 x7 <= +0
 c69: +1 x48 -1 x8 <= +0
 c70: +1 x49 -1 x9 <= +0
 c71: +1 x50 -1 x0 <= +0
 c72: +1 x51 -1 x1 <= +0
 c73: +1 x52 -1 x2 <= +0
 c74: +1 x53 -1 x3 <= +0
 c75: +1 x54 -1 x4 <= +0
 c76: +1 x55 -1 x5 <= +0
 c77: +1 x56 -1 x6 <= +0
 c78: +1 x57 -1 x7 <= +0
 c79: +1 x58 -1 x8 <= +0
 c80: +1 x59 -1 x9 <= +0
 c81: +1 x60 -1 x0 <= +0
 c82: +1 x61 -1 x1 <= +0
 c83: +1 x62 -1 x2 <= +0
 c84: +1 x63 -1 x3 <= +0
 c85: +1 x64 -1 x4 <= +0
 c86: +1 x65 -1 x5 <= +0
 c87: +1 x66 -1 x6 <= +0
 c88: +1 x67 -1 x7 <= +0
 c89: +1 x68 -1 x8 <= +0
 c90: +1 x69 -1 x9 <= +0
 c91: +1 x70 -1 x0 <= +0
 c92: +1 x71 -1 x1 <= +0
 c93: +1 x72 -1 x2 <= +0
 c94: +1 x73 -1 x3 <= +0
 c95: +1 x74 -1 x4 <= +0
 c96: +1 x75 -1 x5 <= +0
 c97: +1 x76 -1 x6 <= +0
 c98: +1 x77 -1 x7 <= +0
 c99: +1 x78 -1 x8 <= +0
 c100: +1 x79 -1 x9 <= +0
 c101: +1 x80 -1 x0 <= +0
 c102: +1 x81 -1 x1 <= +0
 c103: +1 x82 -1 x2 <= +0
 c104: +1 x83 -1 x3 <= +0
 c105: +1 x84 -1 x4 <= +0
 c106: +1 x85 -1 x5 <= +0
 c107: +1 x86 -1 x6 <= +0
 c108: +1 x87 -1 x7 <= +0
 c109: +1 x88 -1 x8 <= +0
 c110: +1 x89 -1 x9 <= +0
 c111: +1 x90 -1 x0 <= +0
 c112: +1 x91 -1 x1 <= +0
 c113: +1 x92 -1 x2 <= +0
 c114: +1 x93 -1 x3 <= +0
 c115: +1 x94 -1 x4 <= +0
 c116: +1 x95 -1 x5 <= +0
 c117: +1 x96 -1 x6 <= +0
 c118: +1 x97 -1 x7 <= +0
 c119: +1 x98 -1 x8 <= +0
 c120: +1 x99 -1 x9 <= +0
 c121: +1 x100 -1 x0 <= +0
 c122: +1 x101 -1 x1 <= +0
 c123: +1 x102 -1 x2 <= +0
 c124: +1 x103 -1 x3 <= +0
 c125: +1 x104 -1 x4 <= +0
 c126: +1 x105 -1 x5 <= +0
 c127: +1 x106 -1 x6 <= +0
 c128: +1 x107 -1 x7 <= +0
 c129: +1 x108 -1 x8 <= +0
 c130: +1 x109 -1 x9 <= +0
 c131: +1 x110 -1 x0 <= +0
 c132: +1 x111 -1 x1 <= +0
 c133: +1 x112 -1 x2 <= +0
 c134: +1 x113 -1 x3 <= +0
 c135: +1 x114 -1 x4 <= +0
 c136: +1 x115 -1 x5 <= +0
 c137: +1 x116 -1 x6 <= +0
 c138: +1 x117 -1 x7 <= +0
 c139: +1 x118 -1 x8 <= +0
 c140: +1 x119 -1 x9 <= +0
 c141: +1 x120 -1 x0 <= +0
 c142: +1 x121 -1 x1 <= +0
 c143: +1 x122 -1 x2 <= +0
 c144: +1 x123 -1 x3 <= +0
 c145: +1 x124 -1 x4 <= +0
 c146: +1 x125 -1 x5 <= +0
 c147: +1 x126 -1 x6 <= +0
 c148: +1 x127 -1 x7 <= +0
 c149: +1 x128 -1 x8 <= +0
 c150: +1 x129 -1 x9 <= +0
 c151: +1 x130 -1 x0 <= +0
 c152: +1 x131 -1 x1 <= +0
 c153: +1 x132 -1 x2 <= +0
 c154: +1 x133 -1 x3 <= +0
 c155: +1 x134 -1 x4 <= +0
 c156: +1 x135 -1 x5 <= +0
 c157: +1 x136 -1 x6 <= +0
 c158: +1 x137 -1 x7 <= +0
 c159: +1 x138 -1 x8 <= +0
 c160: +1 x139 -1 x9 <= +0
 c161: +1 x140 -1 x0 <= +0
 c162: +1 x141 -1 x1 <= +0
 c163: +1 x142 -1 x2 <= +0
 c164: +1 x143 -1 x3 <= +0
 c165: +1 x144 -1 x4 <= +0
 c166: +1 x145 -1 x5 <= +0
 c167: +1 x146 -1 x6 <= +0
 c168: +1 x147 -1 x7 <= +0
 c169: +1 x148 -1 x8 <= +0
 c170: +1 x149 -1 x9 <= +0
 c171: +1 x150 -1 x0 <= +0
 c172: +1 x151 -1 x1 <= +0
 c173: +1 x152 -1 x2 <= +0
 c174: +1 x153 -1 x3 <= +0
 c175: +1 x154 -1 x4 <= +0
 c176: +1 x155 -1 x5 <= +0
 c177: +1 x156 -1 x6 <= +0
 c178: +1 x157 -1 x7 <= +0
 c179: +1 x158 -1 x8 <= +0
 c180: +1 x159 -1 x9 <= +0
 c181: +1 x160 -1 x0 <= +0
 c182: +1 x161 -1 x1 <= +0
 c183: +1 x162 -1 x2 <= +0
 c184: +1 x163 -1 x3 <= +0
 c185: +1 x164 -1 x4 <= +0
 c186: +1 x165 -1 x5 <= +0
 c187: +1 x166 -1 x6 <= +0
 c188: +1 x167 -1 x7 <= +0
 c189: +1 x168 -1 x8 <= +0
 c190: +1 x169 -1 x9 <= +0
 c191: +1 x170 -1 x0 <= +0
 c192: +1 x171 -1 x1 <= +0
 c193: +1 x172 -1 x2 <= +0
 c194: +1 x173 -1 x3 <= +0
 c195: +1 x174 -1 x4 <= +0
 c196: +1 x175 -1 x5 <= +0
 c197: +1 x176 -1 x6 <= +0
 c198: +1 x177 -1 x7 <= +0
 c199: +1 x178 -1 x8 <= +0
 c200: +1 x179 -1 x9 <= +0
 c201: +1 x180 -1 x0 <= +0
 c202: +1 x181 -1 x1 <= +0
 c203: +1 x182 -1 x2 <= +0
 c204: +1 x183 -1 x3 <= +0
 c205: +1 x184 -1 x4 <= +0
 c206: +1 x185 -1 x5 <= +0
 c207: +1 x186 -1 x6 <= +0
 c208: +1 x187 -1 x7 <= +0
 c209: +1 x188 -1 x8 <= +0
 c210: +1 x189 -1 x9 <= +0
 c211: +1 x190 -1 x0 <= +0
 c212: +1 x191 -1 x1 <= +0
 c213: +1 x192 -1 x2 <= +0
 c214: +1 x193 -1 x3 <= +0
 c215: +1 x194 -1 x4 <= +0
 c216: +1 x195 -1 x5 <= +0
 c217: +1 x196 -1 x6 <= +0
 c218: +1 x197 -1 x7 <= +0
 c219: +1 x198 -1 x8 <= +0
 c220: +1 x199 -1 x9 <= +0
 c221: +1 x200 -1 x0 <= +0
 c222: +1 x201 -1 x1 <= +0
 c223: +1 x202 -1 x2 <= +0
 c224: +1 x203 -1 x3 <= +0
 c225: +1 x204 -1 x4 <= +0
 c226: +1 x205 -1 x5 <= +0
 c227: +1 x206 -1 x6 <= +0
 c228: +1 x207 -1 x7 <= +0
 c229: +1 x208 -1 x8 <= +0
 c230: +1 x209 -1 x9 <= +0
Bounds
 0 <= x0 <= 1
 0 <= x1 <= 1
 0 <= x2 <= 1
 0 <= x3 <= 1
 0 <= x4 <= 1
 0 <= x5 <= 1
 0 <= x6 <= 1
 0 <= x7 <= 1
 0 <= x8 <= 1
 0 <= x9 <= 1
 0 <= x10 <= 1
 0 <= x11 <= 1
 0 <= x12 <= 1
 0 <= x13 <= 1
 0 <= x14 <= 1
 0 <= x15 <= 1
 0 <= x16 <= 1
 0 <= x17 <= 1
 0 <= x18 <= 1
 0 <= x19 <= 1
 0 <= x20 <= 1
 0 <= x21 <= 1
 0 <= x22 <= 1
 0 <= x23 <= 1
 0 <= x24 <= 1
 0 <= x25 <= 1
 0 <= x26 <= 1
 0 <= x27 <= 1
 0 <= x28 <= 1
 0 <= x29 <= 1
 0 <= x30 <= 1
 0 <= x31 <= 1
 0 <= x32 <= 1
 0 <= x33 <= 1
 0 <= x34 <= 1
 0 <= x35 <= 1
 0 <= x36 <= 1
 0 <= x37 <= 1
 0 <= x38 <= 1
 0 <= x39 <= 1
 0 <= x40 <= 1
 0 <= x41 <= 1
 0 <= x42 <= 1
 0 <= x43 <= 1
 0 <= x44 <= 1
 0 <= x45 <= 1
 0 <= x46 <= 1
 0 <= x47 <= 1
 0 <= x48 <= 1
 0 <= x49 <= 1
 0 <= x50 <= 1
 0 <= x51 <= 1
 0 <= x52 <= 1
 0 <= x53 <= 1
 0 <= x54 <= 1
 0 <= x55 <= 1
 0 <= x56 <= 1
 0 <= x57 <= 1
 0 <= x58 <= 1
 0 <= x59 <= 1
 0 <= x60 <= 1
 0 <= x61 <= 1
 0 <= x62 <= 1
 0 <= x63 <= 1
 0 <= x64 <= 1
 0 <= x65 <= 1
 0 <= x66 <= 1
 0 <= x67 <= 1
 0 <= x68 <= 1
 0 <= x69 <= 1
 0 <= x70 <= 1
 0 <= x71 <= 1
 0 <= x72 <= 1
 0 <= x73 <= 1
 0 <= x74 <= 1
 0 <= x75 <= 1
 0 <= x76 <= 1
 0 <= x77 <= 1
 0 <= x78 <= 1
 0 <= x79 <= 1
 0 <= x80 <= 1
 0 <= x81 <= 1
 0 <= x82 <= 1
 0 <= x83 <= 1
 0 <= x84 <= 1
 0 <= x85 <= 1
 0 <= x86 <= 1
 0 <= x87 <= 1
 0 <= x88 <= 1
 0 <= x89 <= 1
 0 <= x90 <= 1
 0 <= x91 <= 1
 0 <= x92 <= 1
 0 <= x93 <= 1
 0 <= x94 <= 1
 0 <= x95 <= 1
 0 <= x96 <= 1
 0 <= x97 <= 1
 0 <= x98 <= 1
 0 <= x99 <= 1
 0 <= x100 <= 1
 0 <= x101 <= 1
 0 <= x102 <= 1
 0 <= x103 <= 1
 0 <= x104 <= 1
 0 <= x105 <= 1
 0 <= x106 <= 1
 0 <= x107 <= 1
 0 <= x108 <= 1
 0 <= x109 <= 1
 0 <= x110 <= 1
 0 <= x111 <= 1
 0 <= x112 <= 1
 0 <= x113 <= 1
 0 <= x114 <= 1
 0 <= x115 <= 1
 0 <= x116 <= 1
 0 <= x117 <= 1
 0 <= x118 <= 1
 0 <= x119 <= 1
 0 <= x120 <= 1
 0 <= x121 <= 1
 0 <= x122 <= 1
 0 <= x123 <= 1
 0 <= x124 <= 1
 0 <= x125 <= 1
 0 <= x126 <= 1
 0 <= x127 <= 1
 0 <= x128 <= 1
 0 <= x129 <= 1
 0 <= x130 <= 1
 0 <= x131 <= 1
 0 <= x132 <= 1
 0 <= x133 <= 1
 0 <= x134 <= 1
 0 <= x135 <= 1
 0 <= x136 <= 1
 0 <= x137 <= 1
 0 <= x138 <= 1
 0 <= x139 <= 1
 0 <= x140 <= 1
 0 <= x141 <= 1
 0 <= x142 <= 1
 0 <= x143 <= 1
 0 <= x144 <= 1
 0 <= x145 <= 1
 0 <= x146 <= 1
 0 <= x147 <= 1
 0 <= x148 <= 1
 0 <= x149 <= 1
 0 <= x150 <= 1
 0 <= x151 <= 1
 0 <= x152 <= 1
 0 <= x153 <= 1
 0 <= x154 <= 1
 0 <= x155 <= 1
 0 <= x156 <= 1
 0 <= x157 <= 1
 0 <= x158 <= 1
 0 <= x159 <= 1
 0 <= x160 <= 1
 0 <= x161 <= 1
 0 <= x162 <= 1
 0 <= x163 <= 1
 0 <= x164 <= 1
 0 <= x165 <= 1
 0 <= x166 <= 1
 0 <= x167 <= 1
 0 <= x168 <= 1
 0 <= x169 <= 1
 0 <= x170 <= 1
 0 <= x171 <= 1
 0 <= x172 <= 1
 0 <= x173 <= 1
 0 <= x174 <= 1
 0 <= x175 <= 1
 0 <= x176 <= 1
 0 <= x177 <= 1
 0 <= x178 <= 1
 0 <= x179 <= 1
 0 <= x180 <= 1
 0 <= x181 <= 1
 0 <= x182 <= 1
 0 <= x183 <= 1
 0 <= x184 <= 1
 0 <= x185 <= 1
 0 <= x186 <= 1
 0 <= x187 <= 1
 0 <= x188 <= 1
 0 <= x189 <= 1
 0 <= x190 <= 1
 0 <= x191 <= 1
 0 <= x192 <= 1
 0 <= x193 <= 1
 0 <= x194 <= 1
 0 <= x195 <= 1
 0 <= x196 <= 1
 0 <= x197 <= 1
 0 <= x198 <= 1
 0 <= x199 <= 1
 0 <= x200 <= 1
 0 <= x201 <= 1
 0 <= x202 <= 1
 0 <= x203 <= 1
 0 <= x204 <= 1
 0 <= x205 <= 1
 0 <= x206 <= 1
 0 <= x207 <= 1
 0 <= x208 <= 1
 0 <= x209 <= 1
Binaries
 x0 x1 x2 x3 x4 x5 x6 x7 x8 x9 x10 x11 x12 x13 x14 x15 x16 x17 x18 x19 x20 x21 x22 x23 x24 x25 x26 x27
 x28 x29 x30 x31 x32 x33 x34 x35 x36 x37 x38 x39 x40 x41 x42 x43 x44 x45 x46 x47 x48 x49 x50 x51 x52 x53
 x54 x55 x56 x57 x58 x59 x60 x61 x62 x63 x64 x65 x66 x67 x68 x69 x70 x71 x72 x73 x74 x75 x76 x77 x78 x79
 x80 x81 x82 x83 x84 x85 x86 x87 x88 x89 x90 x91 x92 x93 x94 x95 x96 x97 x98 x99 x100 x101 x102 x103 x104
 x105 x106 x107 x108 x109 x110 x111 x112 x113 x114 x115 x116 x117 x118 x119 x120 x121 x122 x123 x124 x125
 x126 x127 x128 x129 x130 x131 x132 x133 x134 x135 x136 x137 x138 x139 x140 x141 x142 x143 x144 x145 x146
 x147 x148 x149 x150 x151 x152 x153 x154 x155 x156 x157 x158 x159 x160 x161 x162 x163 x164 x165 x166 x167
 x168 x169 x170 x171 x172 x173 x174 x175 x176 x177 x178 x179 x180 x181 x182 x183 x184 x185 x186 x187 x188
 x189 x190 x191 x192 x193 x194 x195 x196 x197 x198 x199 x200 x201 x202 x203 x204 x205 x206 x207 x208 x209
End
